SDVRP instances/custom_instances/p04_10_split0.vrp
NAME:p04_10_split
BEST_KNOWN: 0
COMMENT: 0
DIMENSION: 741
CAPACITY: 200
EDGE_WEIGHT_FORMAT: FUNCTION
EDGE_WEIGHT_TYPE: EXACT_2D
NODE_COORD_SECTION
1 0.00000 0.00000
2 39 -5
3 39 -5
4 39 -5
5 39 -5
6 39 -5
7 39 -5
8 39 -5
9 20 -10
10 20 -10
11 20 -10
12 47 -17
13 47 -17
14 47 -17
15 47 -17
16 34 28
17 34 28
18 34 28
19 34 28
20 34 28
21 38 16
22 38 16
23 38 16
24 38 16
25 38 16
26 38 16
27 38 16
28 -2 -48
29 -2 -48
30 -2 -48
31 -2 -48
32 -2 -48
33 1 -15
34 1 -15
35 1 -15
36 1 -15
37 1 -15
38 22 40
39 22 40
40 22 40
41 22 40
42 22 40
43 22 40
44 -1 -47
45 -1 -47
46 -1 -47
47 -1 -47
48 -16 -45
49 -16 -45
50 -16 -45
51 -16 -45
52 -16 -45
53 40 -36
54 40 -36
55 40 -36
56 40 -36
57 40 -36
58 40 -36
59 40 -36
60 40 -36
61 48 -12
62 48 -12
63 48 -12
64 48 -12
65 48 -12
66 48 -12
67 -11 40
68 38 46
69 38 46
70 38 46
71 -12 19
72 -12 19
73 -12 19
74 -12 19
75 -12 19
76 -12 19
77 -12 19
78 -49 -39
79 -49 -39
80 -49 -39
81 -49 -39
82 -49 -39
83 9 15
84 9 15
85 9 15
86 10 35
87 10 35
88 10 35
89 10 35
90 10 35
91 -1 -24
92 -1 -24
93 -1 -24
94 -1 -24
95 35 -19
96 35 -19
97 35 -19
98 35 -19
99 35 -19
100 20 -43
101 20 -43
102 20 -43
103 20 -43
104 15 -2
105 15 -2
106 15 -2
107 15 -2
108 13 3
109 13 3
110 13 3
111 13 3
112 13 3
113 13 3
114 38 50
115 38 50
116 38 50
117 38 50
118 38 50
119 38 50
120 24 -15
121 24 -15
122 24 -15
123 24 -15
124 24 -15
125 24 -15
126 24 -15
127 24 -15
128 32 28
129 32 28
130 32 28
131 32 28
132 32 28
133 26 -42
134 26 -42
135 26 -42
136 26 -42
137 26 -42
138 26 -42
139 26 -42
140 26 -42
141 -48 -35
142 -48 -35
143 -48 -35
144 23 -42
145 23 -42
146 23 -42
147 23 -42
148 23 -42
149 23 -42
150 -45 -12
151 -45 -12
152 -45 -12
153 -45 -12
154 -45 -12
155 19 -43
156 19 -43
157 19 -43
158 19 -43
159 19 -43
160 19 -43
161 19 -43
162 19 -43
163 -23 24
164 -23 24
165 -23 24
166 -23 24
167 -23 24
168 27 10
169 27 10
170 25 -18
171 25 -18
172 25 -18
173 25 -18
174 25 -18
175 25 -18
176 25 -18
177 1 1
178 1 1
179 1 1
180 1 1
181 1 1
182 1 1
183 -24 -23
184 -24 -23
185 -24 -23
186 -24 -23
187 -24 -23
188 -24 -23
189 -24 -23
190 -26 44
191 -26 44
192 -26 44
193 -26 44
194 -26 44
195 -17 18
196 -17 18
197 -17 18
198 -17 18
199 5 -4
200 5 -4
201 5 -4
202 5 -4
203 5 -4
204 -31 -14
205 -31 -14
206 -31 -14
207 -31 -14
208 11 -6
209 11 -6
210 11 -6
211 11 -6
212 11 -6
213 11 -6
214 11 -6
215 36 1
216 36 1
217 36 1
218 36 1
219 36 1
220 36 1
221 37 -14
222 37 -14
223 37 -14
224 37 -14
225 37 -14
226 37 -14
227 -30 3
228 -30 3
229 -30 3
230 -30 3
231 -30 3
232 30 49
233 30 49
234 30 49
235 30 49
236 30 49
237 30 49
238 2 -35
239 2 -35
240 2 -35
241 13 36
242 13 36
243 13 36
244 13 36
245 13 36
246 -7 -6
247 -7 -6
248 -7 -6
249 -7 -6
250 -7 -6
251 46 25
252 46 25
253 46 25
254 46 25
255 -34 -25
256 -34 -25
257 -34 -25
258 -34 -25
259 -34 -25
260 -12 -31
261 -12 -31
262 -12 -31
263 -12 -31
264 -12 -31
265 -12 -31
266 -12 -31
267 -48 -37
268 -48 -37
269 -48 -37
270 -48 -37
271 -48 -37
272 -48 -37
273 -48 -37
274 -43 -21
275 -43 -21
276 -43 -21
277 -43 -21
278 -43 -21
279 -43 -21
280 -43 -21
281 26 4
282 26 4
283 26 4
284 26 4
285 26 4
286 21 -47
287 21 -47
288 21 -47
289 21 -47
290 44 25
291 44 25
292 44 25
293 44 25
294 44 25
295 44 25
296 12 -18
297 12 -18
298 12 -18
299 12 -18
300 -6 -28
301 -6 -28
302 -6 -28
303 -6 -28
304 -6 -28
305 49 18
306 49 18
307 49 18
308 -11 -42
309 -11 -42
310 -11 -42
311 -11 -42
312 -11 -42
313 1 -31
314 1 -31
315 1 -31
316 1 -31
317 1 -31
318 1 -31
319 17 26
320 17 26
321 17 26
322 17 26
323 -9 43
324 -9 43
325 -9 43
326 -13 3
327 -13 3
328 -13 3
329 -13 3
330 -13 3
331 -13 3
332 -13 3
333 6 -8
334 6 -8
335 6 -8
336 6 -8
337 6 -8
338 6 -8
339 -31 26
340 -31 26
341 -31 26
342 -31 26
343 -31 26
344 -31 26
345 -31 26
346 5 -13
347 5 -13
348 5 -13
349 5 -13
350 5 -13
351 5 -13
352 5 -13
353 5 -13
354 2 -41
355 2 -41
356 2 -41
357 2 -41
358 2 -41
359 -28 -18
360 -28 -18
361 15 35
362 15 35
363 15 35
364 -46 5
365 -46 5
366 -46 5
367 -13 24
368 -13 24
369 -42 -39
370 -42 -39
371 -42 -39
372 -42 -39
373 -42 -39
374 -42 -39
375 -42 -39
376 -42 -39
377 40 -30
378 40 -30
379 40 -30
380 40 -30
381 40 -30
382 40 -30
383 8 -35
384 8 -35
385 8 -35
386 28 -24
387 28 -24
388 28 -24
389 28 -24
390 28 -24
391 -14 -48
392 -14 -48
393 -14 -48
394 -14 -48
395 -39 -9
396 -39 -9
397 -39 -9
398 -39 -9
399 -39 -9
400 -39 -9
401 -39 -9
402 -38 28
403 -38 28
404 -38 28
405 -38 28
406 -38 28
407 -38 28
408 35 13
409 35 13
410 -34 28
411 -34 28
412 -34 28
413 -33 47
414 -33 47
415 -33 47
416 -30 24
417 -30 24
418 -30 24
419 -30 24
420 -30 24
421 -30 24
422 -16 15
423 -16 15
424 -16 15
425 -16 15
426 -16 15
427 28 -5
428 28 -5
429 28 -5
430 28 -5
431 28 -5
432 28 -5
433 28 -5
434 8 13
435 8 13
436 8 13
437 8 13
438 8 13
439 8 13
440 -5 36
441 -5 36
442 -5 36
443 -5 36
444 -5 36
445 -5 36
446 10 -14
447 10 -14
448 10 -14
449 10 -14
450 10 -14
451 -41 -29
452 -41 -29
453 -41 -29
454 -41 -29
455 -41 -29
456 -41 -29
457 -41 -29
458 -45 -2
459 -45 -2
460 -8 -33
461 -8 -33
462 -8 -33
463 26 -10
464 26 -10
465 26 -10
466 26 -10
467 26 -10
468 -31 -5
469 -31 -5
470 -18 41
471 -18 41
472 -29 37
473 -29 37
474 -29 37
475 -29 37
476 -29 37
477 -39 -35
478 -39 -35
479 -39 -35
480 -39 -35
481 -39 -35
482 -39 -35
483 -39 -35
484 -3 -24
485 -3 -24
486 -3 -24
487 -3 -24
488 -3 -24
489 -3 -24
490 -3 -24
491 24 36
492 24 36
493 24 36
494 24 36
495 24 36
496 -8 33
497 -8 33
498 -8 33
499 -4 36
500 -4 36
501 -4 36
502 -4 36
503 -38 -27
504 -38 -27
505 -38 -27
506 -38 -27
507 -38 -27
508 -3 -13
509 -3 -13
510 -3 -13
511 -3 -13
512 -3 -13
513 -3 -13
514 -3 -13
515 47 -14
516 47 -14
517 47 -14
518 47 -14
519 47 -14
520 36 -20
521 36 -20
522 32 -45
523 32 -45
524 -8 3
525 -8 3
526 -8 3
527 -8 3
528 -42 -40
529 -42 -40
530 -42 -40
531 -42 -40
532 -42 -40
533 -42 -40
534 -37 -21
535 -37 -21
536 -37 -21
537 -37 -21
538 -37 -21
539 20 -35
540 20 -35
541 20 -35
542 20 -35
543 20 -35
544 40 -19
545 40 -19
546 40 -19
547 40 -19
548 40 -19
549 40 -19
550 40 -19
551 40 -19
552 -16 -30
553 -16 -30
554 -16 -30
555 -16 -30
556 -7 -7
557 -7 -7
558 -7 -7
559 -7 -7
560 -7 -7
561 30 38
562 30 38
563 30 38
564 14 -7
565 14 -7
566 14 -7
567 -22 -18
568 -22 -18
569 -22 -18
570 -22 -18
571 -22 -18
572 24 -9
573 24 -9
574 9 -48
575 9 -48
576 9 -48
577 9 -48
578 9 -48
579 -5 -25
580 -5 -25
581 -5 -25
582 -5 -25
583 -5 -25
584 -5 -25
585 -21 42
586 -21 42
587 -21 42
588 -21 42
589 -22 31
590 -22 31
591 -22 31
592 -22 31
593 -22 31
594 -22 31
595 43 12
596 43 12
597 43 12
598 43 12
599 43 12
600 7 -17
601 7 -17
602 7 -17
603 7 -17
604 -21 -41
605 -21 -41
606 -21 -41
607 2 -16
608 2 -16
609 2 -16
610 2 -16
611 2 -16
612 6 -22
613 6 -22
614 6 -22
615 -35 36
616 -35 36
617 -35 36
618 -35 36
619 -35 36
620 -35 36
621 -35 36
622 33 41
623 33 41
624 25 49
625 25 49
626 25 49
627 25 49
628 25 49
629 25 49
630 7 10
631 7 10
632 7 10
633 7 10
634 7 10
635 7 10
636 -50 13
637 -50 13
638 -50 13
639 -50 13
640 -50 13
641 -50 13
642 -50 13
643 -41 34
644 -41 34
645 -41 34
646 7 22
647 7 22
648 7 22
649 7 22
650 1 -40
651 1 -40
652 1 -40
653 41 -1
654 41 -1
655 41 -1
656 41 -1
657 41 -1
658 41 -1
659 35 33
660 35 33
661 35 33
662 35 33
663 35 33
664 35 33
665 35 33
666 -43 21
667 -43 21
668 -43 21
669 -43 21
670 -43 21
671 12 37
672 12 37
673 12 37
674 12 37
675 12 37
676 6 -34
677 6 -34
678 6 -34
679 6 -34
680 -38 12
681 -38 12
682 -38 12
683 -38 12
684 -38 12
685 -38 12
686 -6 44
687 -6 44
688 -6 44
689 -6 44
690 -6 44
691 -6 44
692 -6 44
693 16 -43
694 16 -43
695 16 -43
696 46 -26
697 46 -26
698 46 -26
699 46 -26
700 46 -26
701 28 30
702 28 30
703 28 30
704 28 30
705 28 30
706 28 30
707 -12 24
708 -12 24
709 -12 24
710 -12 24
711 -12 24
712 -12 24
713 -40 -5
714 -40 -5
715 -40 -5
716 -40 -5
717 -40 -5
718 -40 -5
719 -40 -5
720 -10 8
721 -10 8
722 -10 8
723 -10 8
724 -10 8
725 -10 8
726 -10 8
727 -30 1
728 49 -17
729 49 -17
730 49 -17
731 49 -17
732 18 17
733 18 17
734 18 17
735 18 17
736 18 17
737 35 -5
738 35 -5
739 35 -5
740 35 -5
741 35 -5
DEMAND_SECTION
1 0
2 40
3 20
4 10
5 2
6 2
7 2
8 1
9 20
10 10
11 2
12 40
13 40
14 10
15 2
16 40
17 10
18 2
19 2
20 1
21 20
22 10
23 2
24 2
25 2
26 2
27 1
28 40
29 20
30 2
31 2
32 2
33 40
34 10
35 2
36 2
37 1
38 40
39 40
40 2
41 2
42 2
43 1
44 40
45 20
46 2
47 2
48 40
49 40
50 10
51 2
52 1
53 40
54 40
55 10
56 2
57 2
58 2
59 2
60 1
61 40
62 20
63 2
64 2
65 2
66 2
67 40
68 40
69 20
70 10
71 40
72 20
73 2
74 2
75 2
76 2
77 1
78 40
79 40
80 10
81 2
82 1
83 40
84 20
85 1
86 40
87 20
88 10
89 2
90 2
91 20
92 2
93 2
94 2
95 40
96 10
97 2
98 2
99 2
100 20
101 10
102 2
103 1
104 40
105 40
106 2
107 2
108 40
109 10
110 2
111 2
112 2
113 2
114 40
115 40
116 2
117 2
118 2
119 2
120 40
121 40
122 10
123 2
124 2
125 2
126 2
127 1
128 40
129 20
130 2
131 2
132 2
133 40
134 40
135 10
136 2
137 2
138 2
139 2
140 1
141 40
142 2
143 1
144 20
145 10
146 2
147 2
148 2
149 1
150 40
151 10
152 2
153 2
154 2
155 40
156 40
157 10
158 2
159 2
160 2
161 2
162 1
163 40
164 10
165 2
166 2
167 1
168 20
169 10
170 40
171 20
172 10
173 2
174 2
175 2
176 2
177 40
178 10
179 2
180 2
181 2
182 2
183 40
184 40
185 10
186 2
187 2
188 2
189 1
190 20
191 10
192 2
193 2
194 2
195 40
196 40
197 10
198 2
199 40
200 2
201 2
202 2
203 2
204 40
205 40
206 10
207 1
208 40
209 40
210 2
211 2
212 2
213 2
214 1
215 40
216 20
217 10
218 2
219 2
220 2
221 40
222 40
223 2
224 2
225 2
226 1
227 20
228 2
229 2
230 2
231 2
232 40
233 20
234 2
235 2
236 2
237 1
238 20
239 10
240 1
241 40
242 20
243 2
244 2
245 2
246 40
247 10
248 2
249 2
250 1
251 40
252 10
253 2
254 1
255 40
256 20
257 2
258 2
259 2
260 20
261 10
262 2
263 2
264 2
265 2
266 1
267 40
268 20
269 10
270 2
271 2
272 2
273 1
274 40
275 40
276 2
277 2
278 2
279 2
280 1
281 40
282 20
283 2
284 2
285 1
286 40
287 20
288 10
289 2
290 40
291 2
292 2
293 2
294 2
295 1
296 40
297 10
298 2
299 1
300 20
301 10
302 2
303 2
304 1
305 40
306 40
307 2
308 40
309 10
310 2
311 2
312 2
313 40
314 20
315 2
316 2
317 2
318 1
319 40
320 40
321 10
322 1
323 40
324 20
325 10
326 40
327 20
328 2
329 2
330 2
331 2
332 1
333 40
334 40
335 10
336 2
337 2
338 2
339 40
340 40
341 10
342 2
343 2
344 2
345 2
346 40
347 20
348 10
349 2
350 2
351 2
352 2
353 1
354 40
355 10
356 2
357 2
358 2
359 40
360 2
361 40
362 40
363 2
364 40
365 2
366 1
367 20
368 10
369 40
370 40
371 10
372 2
373 2
374 2
375 2
376 1
377 40
378 10
379 2
380 2
381 2
382 1
383 40
384 10
385 2
386 40
387 2
388 2
389 2
390 2
391 20
392 10
393 2
394 1
395 40
396 20
397 10
398 2
399 2
400 2
401 1
402 40
403 20
404 2
405 2
406 2
407 1
408 40
409 40
410 20
411 10
412 1
413 40
414 10
415 2
416 40
417 40
418 10
419 2
420 2
421 1
422 40
423 10
424 2
425 2
426 1
427 40
428 20
429 2
430 2
431 2
432 2
433 1
434 20
435 10
436 2
437 2
438 2
439 1
440 20
441 10
442 2
443 2
444 2
445 2
446 40
447 2
448 2
449 2
450 2
451 40
452 40
453 10
454 2
455 2
456 2
457 1
458 40
459 2
460 40
461 40
462 10
463 40
464 20
465 2
466 2
467 2
468 40
469 1
470 40
471 2
472 40
473 40
474 10
475 2
476 2
477 40
478 40
479 10
480 2
481 2
482 2
483 2
484 40
485 10
486 2
487 2
488 2
489 2
490 1
491 20
492 10
493 2
494 2
495 1
496 40
497 20
498 10
499 40
500 20
501 10
502 1
503 40
504 20
505 2
506 2
507 2
508 40
509 10
510 2
511 2
512 2
513 2
514 1
515 20
516 2
517 2
518 2
519 2
520 40
521 10
522 40
523 40
524 40
525 20
526 2
527 1
528 20
529 2
530 2
531 2
532 2
533 1
534 40
535 40
536 2
537 2
538 1
539 40
540 40
541 10
542 2
543 2
544 40
545 20
546 10
547 2
548 2
549 2
550 2
551 1
552 40
553 10
554 2
555 2
556 40
557 10
558 2
559 2
560 2
561 40
562 20
563 1
564 20
565 10
566 2
567 20
568 2
569 2
570 2
571 1
572 40
573 1
574 40
575 20
576 10
577 2
578 1
579 40
580 2
581 2
582 2
583 2
584 1
585 40
586 40
587 10
588 1
589 40
590 20
591 10
592 2
593 2
594 2
595 20
596 10
597 2
598 2
599 2
600 40
601 40
602 2
603 1
604 20
605 10
606 2
607 40
608 40
609 10
610 2
611 2
612 40
613 20
614 2
615 20
616 10
617 2
618 2
619 2
620 2
621 1
622 40
623 1
624 40
625 10
626 2
627 2
628 2
629 1
630 40
631 20
632 10
633 2
634 2
635 2
636 40
637 40
638 10
639 2
640 2
641 2
642 2
643 40
644 20
645 1
646 40
647 40
648 10
649 2
650 40
651 20
652 10
653 40
654 40
655 10
656 2
657 2
658 1
659 40
660 40
661 10
662 2
663 2
664 2
665 1
666 40
667 2
668 2
669 2
670 2
671 20
672 10
673 2
674 2
675 1
676 20
677 10
678 2
679 1
680 40
681 20
682 2
683 2
684 2
685 2
686 40
687 40
688 10
689 2
690 2
691 2
692 2
693 40
694 40
695 2
696 20
697 10
698 2
699 2
700 2
701 40
702 20
703 2
704 2
705 2
706 1
707 40
708 20
709 10
710 2
711 2
712 1
713 40
714 40
715 10
716 2
717 2
718 2
719 1
720 40
721 40
722 10
723 2
724 2
725 2
726 1
727 40
728 40
729 2
730 2
731 1
732 40
733 2
734 2
735 2
736 2
737 40
738 2
739 2
740 2
741 2
DEPOT_SECTION
1
-1
EOF