SDVRP instances/custom_instances/p04_10_split0.sol
740 -3 5 63 62 60 61 64 65 516 517 515 518 514 730 728 727 729 12 -9 544 543 545 546 550 547 548 549 519 520 96 97 94 95 98 126 123 124 -17 18 16 19 15 127 130 131 129 128 703 701 700 705 702 704 177 181 -22 26 20 21 23 24 25 304 306 305 594 596 598 597 595 280 -33 34 32 36 35 608 606 609 607 610 447 449 445 448 446 -39 42 41 628 624 625 627 626 623 232 234 231 236 233 235 561 560 562 -45 44 46 43 29 27 31 28 30 308 307 309 310 311 300 303 583 581 -52 58 54 57 56 59 53 55 522 521 143 -66 470 469 585 587 586 584 710 707 74 72 76 -73 70 71 75 195 194 196 197 720 722 725 -81 77 80 79 78 271 269 270 272 268 140 142 141 502 505 506 -92 90 486 487 488 580 579 302 301 299 461 459 460 551 552 554 553 -105 103 106 104 563 565 564 208 209 212 207 -107 168 167 408 407 731 733 734 735 732 -111 108 112 110 109 428 427 426 429 432 431 430 465 466 463 462 464 572 571 -116 118 117 114 115 113 68 69 67 621 622 -138 134 132 133 135 137 139 136 144 147 145 148 146 538 539 541 542 -158 161 160 155 156 154 157 159 693 692 694 -169 174 175 172 173 171 170 120 119 121 122 125 8 10 210 213 211 -180 178 176 179 631 629 634 633 630 632 82 83 84 435 436 438 437 434 -184 188 182 183 187 185 186 358 359 206 204 205 -199 201 387 389 386 388 385 377 376 380 379 381 378 696 699 698 697 695 11 13 14 222 225 -200 202 198 509 508 512 513 511 510 507 555 556 558 557 559 245 -203 278 273 274 279 276 275 277 151 153 152 149 150 400 398 396 -223 220 224 221 7 1 6 4 2 739 736 737 740 738 -239 237 238 354 357 356 355 353 651 650 649 578 582 -242 244 240 241 243 674 673 672 670 671 88 86 87 89 85 647 648 -246 375 369 370 373 372 374 368 371 531 530 527 528 529 532 266 267 -247 249 248 569 570 568 566 567 258 255 254 256 257 504 503 533 534 -260 264 261 263 262 265 259 391 392 390 393 50 47 49 48 51 603 605 604 -282 283 281 284 216 219 217 214 215 218 655 654 657 656 652 653 -290 289 292 293 291 294 250 252 253 251 659 662 663 658 661 664 660 -297 298 296 295 613 612 611 599 600 601 602 -324 322 323 687 685 689 691 690 688 686 442 440 439 -328 327 330 331 638 637 641 635 636 639 640 364 365 363 457 458 714 -335 334 336 332 337 333 350 345 347 346 351 352 349 348 -341 342 339 343 340 344 338 411 410 409 401 402 405 404 418 -361 360 362 38 37 40 491 493 494 490 492 -367 366 589 590 593 588 592 591 472 474 475 473 471 -383 573 575 576 577 574 288 287 286 285 99 102 101 100 540 -384 382 678 677 675 676 314 315 317 312 313 316 91 93 483 489 485 484 -397 399 395 394 715 712 716 713 718 717 468 467 -406 403 643 644 642 620 618 619 617 615 616 614 412 414 413 189 192 191 193 190 423 424 -419 415 420 417 416 163 162 164 165 166 421 425 422 -433 320 319 321 318 645 646 -481 482 480 477 478 479 476 452 455 451 454 453 450 456 535 536 537 -500 498 501 499 444 443 441 497 495 496 711 709 708 706 -523 526 525 524 329 326 325 719 724 721 723 -668 666 669 667 665 684 682 680 683 681 679 227 229 226 230 228 726 0 





OBJ=
4296.808
BEST_KNOWN=
0.000